NAME          COPTPROB
OBJSENSE
  MIN
ROWS
 N  __OBJ___
 L  C2      
 L  C7      
 L  C11     
 L  C12     
 L  C13     
 L  C14     
 L  C15     
 L  C17     
 L  C18     
 L  C19     
 L  C20     
 L  C21     
 L  C26     
 L  C27     
 L  C28     
 L  C30     
 L  C32     
 L  C33     
 L  C35     
 L  C37     
 L  C38     
 L  C39     
 L  C40     
 L  C41     
 L  C42     
 L  C43     
 L  C48     
 L  C50     
 L  C53     
 L  C55     
 L  C61     
 L  C62     
 L  C63     
 L  C64     
 L  C67     
 L  C68     
 L  C71     
 L  C80     
 L  C81     
 L  C83     
 L  C84     
 L  C87     
 L  C88     
 L  C90     
 L  C92     
 L  C93     
 L  C95     
 L  C96     
 L  C98     
 L  C101    
 L  C102    
 L  C103    
 L  C106    
 L  C107    
 L  C109    
 L  C111    
 L  C114    
 L  C117    
 L  C121    
 L  C123    
 L  C124    
 L  C125    
 L  C126    
 L  C130    
 L  C132    
 L  C134    
 L  C136    
 L  C137    
 L  C140    
 L  C141    
 L  C144    
 L  C148    
 L  C149    
 L  C154    
 L  C155    
 L  C161    
 L  C162    
 L  C163    
 L  C165    
 L  C166    
 L  C167    
 L  C170    
 L  C172    
 L  C176    
 L  C180    
 L  C181    
 L  C182    
 L  C183    
 L  C184    
 L  C186    
 L  C188    
 L  C189    
 L  C191    
 L  C194    
 L  C195    
 L  C198    
 L  C201    
 L  C203    
 L  C204    
 L  C205    
 L  C209    
 L  C210    
 L  C212    
 L  C214    
 L  C215    
 L  C216    
 L  C217    
 L  C218    
 L  C219    
 L  C221    
 L  C223    
 L  C226    
 L  C228    
 L  C230    
 L  C232    
 L  C234    
 L  C237    
 L  C241    
 L  C242    
 L  C245    
 L  C247    
 L  C252    
 L  C253    
 L  C254    
 L  C255    
 L  C258    
 L  C259    
 L  C260    
 L  C261    
 L  C262    
 L  C264    
 L  C266    
 L  C268    
 L  C269    
 L  C274    
 L  C279    
 L  C282    
 L  C284    
 L  C285    
 L  C286    
 L  C288    
 L  C289    
 L  C290    
 L  C296    
 L  C299    
 L  C301    
 L  C303    
 L  C306    
 L  C310    
 L  C316    
 L  C318    
 L  C323    
 L  C325    
 L  C326    
 L  C330    
 L  C336    
 L  C340    
 L  C341    
 L  C343    
 L  C344    
 L  C346    
 L  C350    
 L  C355    
 L  C357    
 L  C358    
 L  C365    
 L  C369    
 L  C370    
 L  C372    
 L  C374    
 L  C375    
 L  C376    
 L  C377    
 L  C378    
 L  C380    
 L  C383    
 L  C385    
 L  C386    
 L  C390    
 L  C392    
 L  C393    
 L  C396    
 L  C403    
 L  C405    
 L  C407    
 L  C408    
 L  C413    
 L  C420    
 L  C423    
 L  C424    
 L  C426    
 L  C427    
 L  C431    
 L  C432    
 L  C433    
 L  C438    
 L  C441    
 L  C442    
 L  C447    
 L  C449    
 L  C450    
 L  C451    
 L  C452    
 L  C453    
 L  C457    
 L  C458    
 L  C459    
 L  C460    
 L  C462    
 L  C466    
 L  C470    
 L  C471    
 L  C472    
 L  C473    
 L  C476    
 L  C478    
 L  C480    
 L  C481    
 L  C482    
 L  C485    
 L  C486    
 L  C487    
 L  C489    
 L  C496    
 L  C497    
 L  C498    
 L  C499    
 L  C502    
 L  C504    
 L  C506    
 L  C509    
 L  C511    
 L  C512    
 L  C517    
 L  C518    
 L  C522    
 L  C523    
 L  C525    
 L  C526    
 L  C527    
 L  C528    
 L  C531    
 L  C533    
 L  C534    
 L  C535    
 L  C538    
 L  C539    
 L  C540    
 L  C541    
 L  C546    
 L  C548    
 L  C549    
 L  C552    
 L  C553    
 L  C557    
 L  C561    
 L  C562    
 L  C563    
 L  C565    
COLUMNS
    MARKER    'MARKER'                 'INTORG'
    x1        __OBJ___  -1
    x1        C38       1
    x1        C194      1
    x1        C290      1
    x1        C557      1
    x2        __OBJ___  -1
    x2        C509      1
    x2        C528      1
    x11       __OBJ___  -1
    x11       C62       1
    x11       C215      1
    x11       C284      1
    x11       C374      1
    x11       C541      1
    x11       C552      1
    x12       __OBJ___  -1
    x12       C55       1
    x12       C84       1
    x12       C194      1
    x12       C392      1
    x12       C470      1
    x14       __OBJ___  -1
    x14       C96       1
    x14       C167      1
    x14       C172      1
    x14       C204      1
    x14       C326      1
    x14       C385      1
    x14       C403      1
    x14       C423      1
    x14       C426      1
    x14       C457      1
    x14       C480      1
    x15       __OBJ___  -1
    x15       C41       1
    x15       C103      1
    x15       C218      1
    x15       C471      1
    x16       __OBJ___  -1
    x16       C358      1
    x16       C374      1
    x16       C438      1
    x16       C517      1
    x16       C531      1
    x16       C534      1
    x18       __OBJ___  -1
    x18       C35       1
    x18       C106      1
    x18       C221      1
    x18       C260      1
    x18       C286      1
    x18       C462      1
    x18       C481      1
    x18       C499      1
    x18       C511      1
    x18       C517      1
    x18       C561      1
    x20       __OBJ___  -1
    x20       C53       1
    x20       C232      1
    x20       C369      1
    x20       C497      1
    x20       C535      1
    x21       __OBJ___  -1
    x21       C63       1
    x21       C121      1
    x21       C161      1
    x21       C470      1
    x22       __OBJ___  -1
    x22       C41       1
    x22       C203      1
    x22       C252      1
    x22       C260      1
    x23       __OBJ___  -1
    x23       C11       1
    x23       C67       1
    x23       C114      1
    x23       C181      1
    x23       C232      1
    x23       C269      1
    x23       C385      1
    x23       C390      1
    x23       C431      1
    x23       C504      1
    x24       __OBJ___  -1
    x24       C30       1
    x24       C40       1
    x24       C181      1
    x24       C210      1
    x24       C219      1
    x24       C290      1
    x24       C528      1
    x25       __OBJ___  -1
    x25       C61       1
    x25       C101      1
    x25       C117      1
    x25       C123      1
    x25       C148      1
    x25       C165      1
    x25       C214      1
    x25       C247      1
    x25       C266      1
    x25       C285      1
    x25       C306      1
    x25       C452      1
    x25       C549      1
    x25       C565      1
    x26       __OBJ___  -1
    x26       C102      1
    x26       C149      1
    x26       C217      1
    x26       C258      1
    x26       C357      1
    x26       C518      1
    x26       C533      1
    x26       C565      1
    x27       __OBJ___  -1
    x27       C55       1
    x27       C155      1
    x27       C189      1
    x27       C262      1
    x27       C482      1
    x27       C486      1
    x27       C498      1
    x28       __OBJ___  -1
    x28       C26       1
    x28       C62       1
    x28       C232      1
    x28       C386      1
    x28       C487      1
    x29       __OBJ___  -1
    x29       C71       1
    x29       C172      1
    x29       C497      1
    x30       __OBJ___  -1
    x30       C2        1
    x30       C88       1
    x30       C140      1
    x30       C144      1
    x30       C264      1
    x30       C341      1
    x30       C441      1
    x30       C504      1
    x30       C506      1
    x30       C522      1
    x30       C526      1
    x31       __OBJ___  -1
    x31       C13       1
    x31       C17       1
    x31       C39       1
    x31       C80       1
    x31       C183      1
    x31       C188      1
    x31       C261      1
    x31       C346      1
    x31       C450      1
    x31       C512      1
    x31       C526      1
    x32       __OBJ___  -1
    x32       C19       1
    x32       C95       1
    x32       C228      1
    x32       C241      1
    x32       C306      1
    x32       C350      1
    x32       C424      1
    x33       __OBJ___  -1
    x33       C15       1
    x33       C134      1
    x33       C155      1
    x33       C176      1
    x33       C274      1
    x33       C282      1
    x33       C517      1
    x34       __OBJ___  -1
    x34       C92       1
    x34       C98       1
    x34       C125      1
    x34       C203      1
    x34       C299      1
    x34       C498      1
    x34       C541      1
    x34       C562      1
    x35       __OBJ___  -1
    x35       C7        1
    x35       C282      1
    x35       C390      1
    x35       C546      1
    x37       __OBJ___  -1
    x37       C38       1
    x37       C50       1
    x37       C242      1
    x37       C254      1
    x37       C299      1
    x37       C423      1
    x37       C525      1
    x38       __OBJ___  -1
    x38       C32       1
    x38       C37       1
    x38       C155      1
    x38       C453      1
    x38       C473      1
    x38       C502      1
    x39       __OBJ___  -1
    x39       C166      1
    x39       C217      1
    x39       C378      1
    x41       __OBJ___  -1
    x41       C61       1
    x41       C93       1
    x41       C318      1
    x41       C452      1
    x41       C552      1
    x41       C565      1
    x42       __OBJ___  -1
    x42       C14       1
    x42       C103      1
    x42       C330      1
    x42       C393      1
    x42       C441      1
    x42       C459      1
    x42       C534      1
    x43       __OBJ___  -1
    x43       C191      1
    x43       C230      1
    x43       C471      1
    x43       C499      1
    x43       C535      1
    x44       __OBJ___  -1
    x44       C204      1
    x44       C539      1
    x45       __OBJ___  -1
    x45       C123      1
    x45       C198      1
    x45       C289      1
    x45       C343      1
    x46       __OBJ___  -1
    x46       C209      1
    x46       C253      1
    x46       C358      1
    x46       C466      1
    x46       C539      1
    x47       __OBJ___  -1
    x47       C170      1
    x47       C296      1
    x47       C506      1
    x48       __OBJ___  -1
    x48       C92       1
    x48       C210      1
    x48       C341      1
    x48       C372      1
    x48       C442      1
    x48       C563      1
    x49       __OBJ___  -1
    x49       C28       1
    x49       C111      1
    x49       C344      1
    x49       C346      1
    x49       C357      1
    x49       C482      1
    x51       __OBJ___  -1
    x51       C2        1
    x51       C28       1
    x51       C40       1
    x51       C180      1
    x51       C186      1
    x51       C540      1
    x52       __OBJ___  -1
    x52       C107      1
    x52       C252      1
    x52       C268      1
    x52       C466      1
    x52       C489      1
    x52       C518      1
    x53       __OBJ___  -1
    x53       C7        1
    x53       C95       1
    x53       C136      1
    x53       C154      1
    x53       C375      1
    x53       C533      1
    x54       __OBJ___  -1
    x54       C20       1
    x54       C27       1
    x54       C43       1
    x54       C154      1
    x54       C166      1
    x54       C201      1
    x54       C245      1
    x54       C472      1
    x54       C525      1
    x54       C538      1
    x55       __OBJ___  -1
    x55       C63       1
    x55       C137      1
    x55       C289      1
    x55       C303      1
    x55       C374      1
    x56       __OBJ___  -1
    x56       C141      1
    x56       C183      1
    x56       C296      1
    x56       C310      1
    x56       C330      1
    x57       __OBJ___  -1
    x57       C109      1
    x57       C498      1
    x59       __OBJ___  -1
    x59       C162      1
    x59       C201      1
    x59       C286      1
    x60       __OBJ___  -1
    x60       C195      1
    x60       C261      1
    x60       C396      1
    x60       C459      1
    x61       __OBJ___  -1
    x61       C18       1
    x61       C68       1
    x61       C109      1
    x61       C134      1
    x61       C383      1
    x61       C433      1
    x63       __OBJ___  -1
    x63       C93       1
    x63       C426      1
    x63       C458      1
    x63       C462      1
    x64       __OBJ___  -1
    x64       C87       1
    x64       C88       1
    x64       C386      1
    x66       __OBJ___  -1
    x66       C132      1
    x66       C163      1
    x66       C473      1
    x66       C522      1
    x66       C548      1
    x67       __OBJ___  -1
    x67       C13       1
    x67       C509      1
    x67       C511      1
    x68       __OBJ___  -1
    x68       C71       1
    x68       C303      1
    x68       C405      1
    x69       __OBJ___  -1
    x69       C33       1
    x69       C191      1
    x69       C299      1
    x71       __OBJ___  -1
    x71       C137      1
    x71       C188      1
    x71       C279      1
    x72       __OBJ___  -1
    x72       C203      1
    x72       C216      1
    x72       C264      1
    x73       __OBJ___  -1
    x73       C12       1
    x73       C219      1
    x73       C325      1
    x74       __OBJ___  -1
    x74       C27       1
    x74       C130      1
    x74       C184      1
    x74       C380      1
    x75       __OBJ___  -1
    x75       C14       1
    x75       C176      1
    x75       C365      1
    x75       C523      1
    x76       __OBJ___  -1
    x76       C42       1
    x76       C48       1
    x76       C117      1
    x76       C234      1
    x76       C255      1
    x76       C392      1
    x78       __OBJ___  -1
    x78       C20       1
    x78       C431      1
    x79       __OBJ___  -1
    x79       C21       1
    x79       C424      1
    x79       C441      1
    x80       __OBJ___  -1
    x80       C141      1
    x80       C480      1
    x80       C561      1
    x81       __OBJ___  -1
    x81       C50       1
    x81       C186      1
    x81       C323      1
    x81       C458      1
    x82       __OBJ___  -1
    x82       C18       1
    x82       C262      1
    x82       C431      1
    x82       C476      1
    x83       __OBJ___  -1
    x83       C209      1
    x83       C553      1
    x84       __OBJ___  -1
    x84       C124      1
    x84       C126      1
    x84       C258      1
    x84       C350      1
    x84       C405      1
    x84       C527      1
    x85       __OBJ___  -1
    x85       C136      1
    x85       C355      1
    x85       C502      1
    x85       C563      1
    x86       __OBJ___  -1
    x86       C53       1
    x86       C433      1
    x86       C535      1
    x86       C549      1
    x87       __OBJ___  -1
    x87       C184      1
    x87       C253      1
    x87       C274      1
    x87       C340      1
    x87       C447      1
    x88       __OBJ___  -1
    x88       C163      1
    x88       C259      1
    x88       C336      1
    x88       C344      1
    x88       C438      1
    x90       __OBJ___  -1
    x90       C221      1
    x90       C279      1
    x90       C316      1
    x92       __OBJ___  -1
    x92       C33       1
    x92       C523      1
    x93       __OBJ___  -1
    x93       C83       1
    x93       C126      1
    x93       C512      1
    x95       __OBJ___  -1
    x95       C12       1
    x95       C96       1
    x95       C182      1
    x95       C449      1
    x96       __OBJ___  -1
    x96       C80       1
    x96       C427      1
    x96       C449      1
    x97       __OBJ___  -1
    x97       C84       1
    x97       C87       1
    x97       C101      1
    x97       C496      1
    x98       __OBJ___  -1
    x98       C323      1
    x98       C326      1
    x98       C340      1
    x99       __OBJ___  -1
    x99       C64       1
    x99       C170      1
    x99       C245      1
    x99       C413      1
    x99       C496      1
    x100      __OBJ___  -1
    x100      C83       1
    x100      C205      1
    x100      C212      1
    x100      C223      1
    x100      C487      1
    x102      __OBJ___  -1
    x102      C165      1
    x102      C195      1
    x102      C485      1
    x103      __OBJ___  -1
    x103      C42       1
    x103      C226      1
    x103      C476      1
    x103      C478      1
    x104      __OBJ___  -1
    x104      C81       1
    x104      C107      1
    x104      C266      1
    x105      __OBJ___  -1
    x105      C198      1
    x105      C241      1
    x106      __OBJ___  -1
    x106      C111      1
    x106      C377      1
    x106      C383      1
    x106      C489      1
    x106      C546      1
    x107      __OBJ___  -1
    x107      C144      1
    x107      C375      1
    x107      C376      1
    x107      C553      1
    x108      __OBJ___  -1
    x108      C205      1
    x108      C478      1
    x108      C557      1
    x109      __OBJ___  -1
    x109      C223      1
    x109      C408      1
    x109      C562      1
    x110      __OBJ___  -1
    x110      C306      1
    x110      C325      1
    x111      __OBJ___  -1
    x111      C189      1
    x111      C269      1
    x111      C285      1
    x111      C370      1
    x111      C540      1
    x113      __OBJ___  -1
    x113      C140      1
    x113      C234      1
    x113      C288      1
    x113      C413      1
    x114      __OBJ___  -1
    x114      C15       1
    x114      C212      1
    x114      C268      1
    x115      __OBJ___  -1
    x115      C106      1
    x115      C355      1
    x115      C420      1
    x115      C527      1
    x116      __OBJ___  -1
    x116      C26       1
    x116      C214      1
    x116      C230      1
    x116      C407      1
    x116      C486      1
    x118      __OBJ___  -1
    x118      C11       1
    x118      C35       1
    x118      C485      1
    x119      __OBJ___  -1
    x119      C121      1
    x119      C124      1
    x119      C180      1
    x120      __OBJ___  -1
    x120      C13       1
    x120      C90       1
    x121      __OBJ___  -1
    x121      C130      1
    x121      C288      1
    x121      C432      1
    x121      C451      1
    x123      __OBJ___  -1
    x123      C37       1
    x123      C451      1
    x124      __OBJ___  -1
    x124      C98       1
    x124      C310      1
    x124      C407      1
    x125      __OBJ___  -1
    x125      C48       1
    x125      C365      1
    x125      C457      1
    x126      __OBJ___  -1
    x126      C254      1
    x126      C259      1
    x126      C369      1
    x127      __OBJ___  -1
    x127      C30       1
    x127      C216      1
    x127      C453      1
    x128      __OBJ___  -1
    x128      C61       1
    x128      C372      1
    x129      __OBJ___  -1
    x129      C452      1
    x129      C538      1
    x130      __OBJ___  -1
    x130      C17       1
    x130      C67       1
    x130      C182      1
    x130      C301      1
    x130      C318      1
    x131      __OBJ___  -1
    x131      C88       1
    x131      C460      1
    x131      C526      1
    x132      __OBJ___  -1
    x132      C64       1
    x132      C442      1
    x133      __OBJ___  -1
    x133      C19       1
    x133      C447      1
    x133      C450      1
    x134      __OBJ___  -1
    x134      C215      1
    x134      C408      1
    x135      __OBJ___  -1
    x135      C167      1
    x135      C301      1
    x135      C380      1
    x135      C460      1
    x136      __OBJ___  -1
    x136      C32       1
    x136      C218      1
    x136      C226      1
    x136      C237      1
    x136      C432      1
    x137      __OBJ___  -1
    x137      C149      1
    x137      C284      1
    x137      C548      1
    x138      __OBJ___  -1
    x138      C228      1
    x138      C242      1
    x139      __OBJ___  -1
    x139      C255      1
    x139      C531      1
    x140      __OBJ___  -1
    x140      C125      1
    x140      C132      1
    x140      C377      1
    x140      C472      1
    x141      __OBJ___  -1
    x141      C343      1
    x141      C420      1
    x142      __OBJ___  -1
    x142      C21       1
    x142      C148      1
    x142      C161      1
    x142      C378      1
    x143      __OBJ___  -1
    x143      C43       1
    x143      C53       1
    x143      C403      1
    x144      __OBJ___  -1
    x144      C247      1
    x144      C393      1
    x145      __OBJ___  -1
    x145      C316      1
    x145      C336      1
    x145      C396      1
    x146      __OBJ___  -1
    x146      C68       1
    x146      C81       1
    x146      C162      1
    x147      __OBJ___  -1
    x147      C39       1
    x147      C370      1
    x147      C376      1
    x148      __OBJ___  -1
    x148      C90       1
    x148      C114      1
    x148      C237      1
    x149      __OBJ___  -1
    x149      C102      1
    x149      C427      1
    x149      C481      1
    MARKER    'MARKER'                 'INTEND'
RHS
    RHS       __OBJ___  11
    RHS       C2        1
    RHS       C7        1
    RHS       C11       1
    RHS       C12       1
    RHS       C13       1
    RHS       C14       1
    RHS       C15       1
    RHS       C17       1
    RHS       C18       1
    RHS       C19       1
    RHS       C20       1
    RHS       C21       1
    RHS       C26       1
    RHS       C27       1
    RHS       C28       1
    RHS       C30       1
    RHS       C32       1
    RHS       C33       1
    RHS       C35       1
    RHS       C37       1
    RHS       C38       1
    RHS       C39       1
    RHS       C40       1
    RHS       C41       1
    RHS       C42       1
    RHS       C43       1
    RHS       C48       1
    RHS       C50       1
    RHS       C53       1
    RHS       C55       1
    RHS       C61       1
    RHS       C62       1
    RHS       C63       1
    RHS       C64       1
    RHS       C67       1
    RHS       C68       1
    RHS       C71       1
    RHS       C80       1
    RHS       C81       1
    RHS       C83       1
    RHS       C84       1
    RHS       C87       1
    RHS       C88       1
    RHS       C90       1
    RHS       C92       1
    RHS       C93       1
    RHS       C95       1
    RHS       C96       1
    RHS       C98       1
    RHS       C101      1
    RHS       C102      1
    RHS       C103      1
    RHS       C106      1
    RHS       C107      1
    RHS       C109      1
    RHS       C111      1
    RHS       C114      1
    RHS       C117      1
    RHS       C121      1
    RHS       C123      1
    RHS       C124      1
    RHS       C125      1
    RHS       C126      1
    RHS       C130      1
    RHS       C132      1
    RHS       C134      1
    RHS       C136      1
    RHS       C137      1
    RHS       C140      1
    RHS       C141      1
    RHS       C144      1
    RHS       C148      1
    RHS       C149      1
    RHS       C154      1
    RHS       C155      1
    RHS       C161      1
    RHS       C162      1
    RHS       C163      1
    RHS       C165      1
    RHS       C166      1
    RHS       C167      1
    RHS       C170      1
    RHS       C172      1
    RHS       C176      1
    RHS       C180      1
    RHS       C181      1
    RHS       C182      1
    RHS       C183      1
    RHS       C184      1
    RHS       C186      1
    RHS       C188      1
    RHS       C189      1
    RHS       C191      1
    RHS       C194      1
    RHS       C195      1
    RHS       C198      1
    RHS       C201      1
    RHS       C203      1
    RHS       C204      1
    RHS       C205      1
    RHS       C209      1
    RHS       C210      1
    RHS       C212      1
    RHS       C214      1
    RHS       C215      1
    RHS       C216      1
    RHS       C217      1
    RHS       C218      1
    RHS       C219      1
    RHS       C221      1
    RHS       C223      1
    RHS       C226      1
    RHS       C228      1
    RHS       C230      1
    RHS       C232      1
    RHS       C234      1
    RHS       C237      1
    RHS       C241      1
    RHS       C242      1
    RHS       C245      1
    RHS       C247      1
    RHS       C252      1
    RHS       C253      1
    RHS       C254      1
    RHS       C255      1
    RHS       C258      1
    RHS       C259      1
    RHS       C260      1
    RHS       C261      1
    RHS       C262      1
    RHS       C264      1
    RHS       C266      1
    RHS       C268      1
    RHS       C269      1
    RHS       C274      1
    RHS       C279      1
    RHS       C282      1
    RHS       C284      1
    RHS       C285      1
    RHS       C286      1
    RHS       C288      1
    RHS       C289      1
    RHS       C290      1
    RHS       C296      1
    RHS       C299      1
    RHS       C301      1
    RHS       C303      1
    RHS       C306      1
    RHS       C310      1
    RHS       C316      1
    RHS       C318      1
    RHS       C323      1
    RHS       C325      1
    RHS       C326      1
    RHS       C330      1
    RHS       C336      1
    RHS       C340      1
    RHS       C341      1
    RHS       C343      1
    RHS       C344      1
    RHS       C346      1
    RHS       C350      1
    RHS       C355      1
    RHS       C357      1
    RHS       C358      1
    RHS       C365      1
    RHS       C369      1
    RHS       C370      1
    RHS       C372      1
    RHS       C374      1
    RHS       C375      1
    RHS       C376      1
    RHS       C377      1
    RHS       C378      1
    RHS       C380      1
    RHS       C383      1
    RHS       C385      1
    RHS       C386      1
    RHS       C390      1
    RHS       C392      1
    RHS       C393      1
    RHS       C396      1
    RHS       C403      1
    RHS       C405      1
    RHS       C407      1
    RHS       C408      1
    RHS       C413      1
    RHS       C420      1
    RHS       C423      1
    RHS       C424      1
    RHS       C426      1
    RHS       C427      1
    RHS       C431      1
    RHS       C432      1
    RHS       C433      1
    RHS       C438      1
    RHS       C441      1
    RHS       C442      1
    RHS       C447      1
    RHS       C449      1
    RHS       C450      1
    RHS       C451      1
    RHS       C452      1
    RHS       C453      1
    RHS       C457      1
    RHS       C458      1
    RHS       C459      1
    RHS       C460      1
    RHS       C462      1
    RHS       C466      1
    RHS       C470      1
    RHS       C471      1
    RHS       C472      1
    RHS       C473      1
    RHS       C476      1
    RHS       C478      1
    RHS       C480      1
    RHS       C481      1
    RHS       C482      1
    RHS       C485      1
    RHS       C486      1
    RHS       C487      1
    RHS       C489      1
    RHS       C496      1
    RHS       C497      1
    RHS       C498      1
    RHS       C499      1
    RHS       C502      1
    RHS       C504      1
    RHS       C506      1
    RHS       C509      1
    RHS       C511      1
    RHS       C512      1
    RHS       C517      1
    RHS       C518      1
    RHS       C522      1
    RHS       C523      1
    RHS       C525      1
    RHS       C526      1
    RHS       C527      1
    RHS       C528      1
    RHS       C531      1
    RHS       C533      1
    RHS       C534      1
    RHS       C535      1
    RHS       C538      1
    RHS       C539      1
    RHS       C540      1
    RHS       C541      1
    RHS       C546      1
    RHS       C548      1
    RHS       C549      1
    RHS       C552      1
    RHS       C553      1
    RHS       C557      1
    RHS       C561      1
    RHS       C562      1
    RHS       C563      1
    RHS       C565      1
BOUNDS
 UP BOUND     x1        1
 UP BOUND     x2        1
 UP BOUND     x11       1
 UP BOUND     x12       1
 UP BOUND     x14       1
 UP BOUND     x15       1
 UP BOUND     x16       1
 UP BOUND     x18       1
 UP BOUND     x20       1
 UP BOUND     x21       1
 UP BOUND     x22       1
 UP BOUND     x23       1
 UP BOUND     x24       1
 UP BOUND     x25       1
 UP BOUND     x26       1
 UP BOUND     x27       1
 UP BOUND     x28       1
 UP BOUND     x29       1
 UP BOUND     x30       1
 UP BOUND     x31       1
 UP BOUND     x32       1
 UP BOUND     x33       1
 UP BOUND     x34       1
 UP BOUND     x35       1
 UP BOUND     x37       1
 UP BOUND     x38       1
 UP BOUND     x39       1
 UP BOUND     x41       1
 UP BOUND     x42       1
 UP BOUND     x43       1
 UP BOUND     x44       1
 UP BOUND     x45       1
 UP BOUND     x46       1
 UP BOUND     x47       1
 UP BOUND     x48       1
 UP BOUND     x49       1
 UP BOUND     x51       1
 UP BOUND     x52       1
 UP BOUND     x53       1
 UP BOUND     x54       1
 UP BOUND     x55       1
 UP BOUND     x56       1
 UP BOUND     x57       1
 UP BOUND     x59       1
 UP BOUND     x60       1
 UP BOUND     x61       1
 UP BOUND     x63       1
 UP BOUND     x64       1
 UP BOUND     x66       1
 UP BOUND     x67       1
 UP BOUND     x68       1
 UP BOUND     x69       1
 UP BOUND     x71       1
 UP BOUND     x72       1
 UP BOUND     x73       1
 UP BOUND     x74       1
 UP BOUND     x75       1
 UP BOUND     x76       1
 UP BOUND     x78       1
 UP BOUND     x79       1
 UP BOUND     x80       1
 UP BOUND     x81       1
 UP BOUND     x82       1
 UP BOUND     x83       1
 UP BOUND     x84       1
 UP BOUND     x85       1
 UP BOUND     x86       1
 UP BOUND     x87       1
 UP BOUND     x88       1
 UP BOUND     x90       1
 UP BOUND     x92       1
 UP BOUND     x93       1
 UP BOUND     x95       1
 UP BOUND     x96       1
 UP BOUND     x97       1
 UP BOUND     x98       1
 UP BOUND     x99       1
 UP BOUND     x100      1
 UP BOUND     x102      1
 UP BOUND     x103      1
 UP BOUND     x104      1
 UP BOUND     x105      1
 UP BOUND     x106      1
 UP BOUND     x107      1
 UP BOUND     x108      1
 UP BOUND     x109      1
 UP BOUND     x110      1
 UP BOUND     x111      1
 UP BOUND     x113      1
 UP BOUND     x114      1
 UP BOUND     x115      1
 UP BOUND     x116      1
 UP BOUND     x118      1
 UP BOUND     x119      1
 UP BOUND     x120      1
 UP BOUND     x121      1
 UP BOUND     x123      1
 UP BOUND     x124      1
 UP BOUND     x125      1
 UP BOUND     x126      1
 UP BOUND     x127      1
 UP BOUND     x128      1
 UP BOUND     x129      1
 UP BOUND     x130      1
 UP BOUND     x131      1
 UP BOUND     x132      1
 UP BOUND     x133      1
 UP BOUND     x134      1
 UP BOUND     x135      1
 UP BOUND     x136      1
 UP BOUND     x137      1
 UP BOUND     x138      1
 UP BOUND     x139      1
 UP BOUND     x140      1
 UP BOUND     x141      1
 UP BOUND     x142      1
 UP BOUND     x143      1
 UP BOUND     x144      1
 UP BOUND     x145      1
 UP BOUND     x146      1
 UP BOUND     x147      1
 UP BOUND     x148      1
 UP BOUND     x149      1
ENDATA
